\ Model min_flip_model
\ LP format - for model browsing. Use MPS format to capture full model detail.
Minimize
  X[0,0] + X[0,1] + X[0,3] + X[0,4] + X[1,0] + X[1,2] + X[1,3] + X[1,4]
   + X[2,0] + X[2,3] + X[2,4] + 0 B01[0,0] + 0 B01[1,0] + 0 B01[1,1]
   + 0 B01[2,0] + 0 B01[2,1] + 0 B01[2,2] + 0 B01[3,0] + 0 B01[3,1]
   + 0 B01[3,2] + 0 B01[3,3] + 0 B01[4,0] + 0 B01[4,1] + 0 B01[4,2]
   + 0 B01[4,3] + 0 B01[4,4] + 0 B10[0,0] + 0 B10[1,0] + 0 B10[1,1]
   + 0 B10[2,0] + 0 B10[2,1] + 0 B10[2,2] + 0 B10[3,0] + 0 B10[3,1]
   + 0 B10[3,2] + 0 B10[3,3] + 0 B10[4,0] + 0 B10[4,1] + 0 B10[4,2]
   + 0 B10[4,3] + 0 B10[4,4] + 0 B11[0,0] + 0 B11[1,0] + 0 B11[1,1]
   + 0 B11[2,0] + 0 B11[2,1] + 0 B11[2,2] + 0 B11[3,0] + 0 B11[3,1]
   + 0 B11[3,2] + 0 B11[3,3] + 0 B11[4,0] + 0 B11[4,1] + 0 B11[4,2]
   + 0 B11[4,3] + 0 B11[4,4]
Subject To
 R0: - X[0,0] + X[0,1] - B01[0,1] <= 0
 R1: - X[1,0] + X[1,1] - B01[0,1] <= 0
 R2: - X[2,0] + X[2,1] - B01[0,1] <= 0
 R3: - X[0,0] + X[0,2] - B01[0,2] <= 0
 R4: - X[1,0] + X[1,2] - B01[0,2] <= 0
 R5: - X[2,0] + X[2,2] - B01[0,2] <= 0
 R6: - X[0,0] + X[0,3] - B01[0,3] <= 0
 R7: - X[1,0] + X[1,3] - B01[0,3] <= 0
 R8: - X[2,0] + X[2,3] - B01[0,3] <= 0
 R9: - X[0,0] + X[0,4] - B01[0,4] <= 0
 R10: - X[1,0] + X[1,4] - B01[0,4] <= 0
 R11: - X[2,0] + X[2,4] - B01[0,4] <= 0
 R12: - X[0,1] + X[0,2] - B01[1,2] <= 0
 R13: - X[1,1] + X[1,2] - B01[1,2] <= 0
 R14: - X[2,1] + X[2,2] - B01[1,2] <= 0
 R15: - X[0,1] + X[0,3] - B01[1,3] <= 0
 R16: - X[1,1] + X[1,3] - B01[1,3] <= 0
 R17: - X[2,1] + X[2,3] - B01[1,3] <= 0
 R18: - X[0,1] + X[0,4] - B01[1,4] <= 0
 R19: - X[1,1] + X[1,4] - B01[1,4] <= 0
 R20: - X[2,1] + X[2,4] - B01[1,4] <= 0
 R21: - X[0,2] + X[0,3] - B01[2,3] <= 0
 R22: - X[1,2] + X[1,3] - B01[2,3] <= 0
 R23: - X[2,2] + X[2,3] - B01[2,3] <= 0
 R24: - X[0,2] + X[0,4] - B01[2,4] <= 0
 R25: - X[1,2] + X[1,4] - B01[2,4] <= 0
 R26: - X[2,2] + X[2,4] - B01[2,4] <= 0
 R27: - X[0,3] + X[0,4] - B01[3,4] <= 0
 R28: - X[1,3] + X[1,4] - B01[3,4] <= 0
 R29: - X[2,3] + X[2,4] - B01[3,4] <= 0
 R30: X[0,0] - X[0,1] - B10[0,1] <= 0
 R31: X[1,0] - X[1,1] - B10[0,1] <= 0
 R32: X[2,0] - X[2,1] - B10[0,1] <= 0
 R33: X[0,0] - X[0,2] - B10[0,2] <= 0
 R34: X[1,0] - X[1,2] - B10[0,2] <= 0
 R35: X[2,0] - X[2,2] - B10[0,2] <= 0
 R36: X[0,0] - X[0,3] - B10[0,3] <= 0
 R37: X[1,0] - X[1,3] - B10[0,3] <= 0
 R38: X[2,0] - X[2,3] - B10[0,3] <= 0
 R39: X[0,0] - X[0,4] - B10[0,4] <= 0
 R40: X[1,0] - X[1,4] - B10[0,4] <= 0
 R41: X[2,0] - X[2,4] - B10[0,4] <= 0
 R42: X[0,1] - X[0,2] - B10[1,2] <= 0
 R43: X[1,1] - X[1,2] - B10[1,2] <= 0
 R44: X[2,1] - X[2,2] - B10[1,2] <= 0
 R45: X[0,1] - X[0,3] - B10[1,3] <= 0
 R46: X[1,1] - X[1,3] - B10[1,3] <= 0
 R47: X[2,1] - X[2,3] - B10[1,3] <= 0
 R48: X[0,1] - X[0,4] - B10[1,4] <= 0
 R49: X[1,1] - X[1,4] - B10[1,4] <= 0
 R50: X[2,1] - X[2,4] - B10[1,4] <= 0
 R51: X[0,2] - X[0,3] - B10[2,3] <= 0
 R52: X[1,2] - X[1,3] - B10[2,3] <= 0
 R53: X[2,2] - X[2,3] - B10[2,3] <= 0
 R54: X[0,2] - X[0,4] - B10[2,4] <= 0
 R55: X[1,2] - X[1,4] - B10[2,4] <= 0
 R56: X[2,2] - X[2,4] - B10[2,4] <= 0
 R57: X[0,3] - X[0,4] - B10[3,4] <= 0
 R58: X[1,3] - X[1,4] - B10[3,4] <= 0
 R59: X[2,3] - X[2,4] - B10[3,4] <= 0
 R60: X[0,0] + X[0,1] - B11[0,1] <= 0
 R61: X[1,0] + X[1,1] - B11[0,1] <= 0
 R62: X[2,0] + X[2,1] - B11[0,1] <= 0
 R63: X[0,0] + X[0,2] - B11[0,2] <= 0
 R64: X[1,0] + X[1,2] - B11[0,2] <= 0
 R65: X[2,0] + X[2,2] - B11[0,2] <= 0
 R66: X[0,0] + X[0,3] - B11[0,3] <= 0
 R67: X[1,0] + X[1,3] - B11[0,3] <= 0
 R68: X[2,0] + X[2,3] - B11[0,3] <= 0
 R69: X[0,0] + X[0,4] - B11[0,4] <= 0
 R70: X[1,0] + X[1,4] - B11[0,4] <= 0
 R71: X[2,0] + X[2,4] - B11[0,4] <= 0
 R72: X[0,1] + X[0,2] - B11[1,2] <= 0
 R73: X[1,1] + X[1,2] - B11[1,2] <= 0
 R74: X[2,1] + X[2,2] - B11[1,2] <= 0
 R75: X[0,1] + X[0,3] - B11[1,3] <= 0
 R76: X[1,1] + X[1,3] - B11[1,3] <= 0
 R77: X[2,1] + X[2,3] - B11[1,3] <= 0
 R78: X[0,1] + X[0,4] - B11[1,4] <= 0
 R79: X[1,1] + X[1,4] - B11[1,4] <= 0
 R80: X[2,1] + X[2,4] - B11[1,4] <= 0
 R81: X[0,2] + X[0,3] - B11[2,3] <= 0
 R82: X[1,2] + X[1,3] - B11[2,3] <= 0
 R83: X[2,2] + X[2,3] - B11[2,3] <= 0
 R84: X[0,2] + X[0,4] - B11[2,4] <= 0
 R85: X[1,2] + X[1,4] - B11[2,4] <= 0
 R86: X[2,2] + X[2,4] - B11[2,4] <= 0
 R87: X[0,3] + X[0,4] - B11[3,4] <= 0
 R88: X[1,3] + X[1,4] - B11[3,4] <= 0
 R89: X[2,3] + X[2,4] - B11[3,4] <= 0
 R90: B01[0,1] + B10[0,1] + B11[0,1] <= 2
 R91: B01[0,2] + B10[0,2] + B11[0,2] <= 2
 R92: B01[0,3] + B10[0,3] + B11[0,3] <= 2
 R93: B01[0,4] + B10[0,4] + B11[0,4] <= 2
 R94: B01[1,2] + B10[1,2] + B11[1,2] <= 2
 R95: B01[1,3] + B10[1,3] + B11[1,3] <= 2
 R96: B01[1,4] + B10[1,4] + B11[1,4] <= 2
 R97: B01[2,3] + B10[2,3] + B11[2,3] <= 2
 R98: B01[2,4] + B10[2,4] + B11[2,4] <= 2
 R99: B01[3,4] + B10[3,4] + B11[3,4] <= 2
 R100: <= 0
 R101: <= 0
 R102: <= 0
 R103: <= 0
 R104: <= 0
 R105: <= 0
 R106: <= 0
 R107: <= 0
 R108: <= 0
 R109: <= 0
 R110: <= 0
 R111: <= 0
 R112: <= 0
 R113: <= 0
 R114: <= 0
 R115: 0.5 X[0,0] - 0.5 X[2,0] + z[0,0] <= 0.5
 R116: 0.5 X[1,0] - 0.5 X[2,0] + z[0,1] <= 0.5
 R117: 0.5 X[0,1] - 0.5 X[2,1] + z[1,0] <= 0.5
 R118: 0.5 X[1,1] - 0.5 X[2,1] + z[1,1] <= 0.5
 R119: 0.5 X[0,2] - 0.5 X[2,2] + z[2,0] <= 0.5
 R120: 0.5 X[1,2] - 0.5 X[2,2] + z[2,1] <= 0.5
 R121: 0.5 X[0,3] - 0.5 X[2,3] + z[3,0] <= 0.5
 R122: 0.5 X[1,3] - 0.5 X[2,3] + z[3,1] <= 0.5
 R123: 0.5 X[0,4] - 0.5 X[2,4] + z[4,0] <= 0.5
 R124: 0.5 X[1,4] - 0.5 X[2,4] + z[4,1] <= 0.5
 R125: <= 0
 R126: <= 0
 R127: <= 0
 R128: <= 0
 R129: <= 0
 R130: <= 0
 R131: <= 0
 R132: <= 0
 R133: <= 0
 R134: <= 0
Bounds
Binaries
 X[0,0] X[0,1] X[0,2] X[0,3] X[0,4] X[1,0] X[1,1] X[1,2] X[1,3] X[1,4]
 X[2,0] X[2,1] X[2,2] X[2,3] X[2,4] B01[0,0] B01[0,1] B01[0,2] B01[0,3]
 B01[0,4] B01[1,0] B01[1,1] B01[1,2] B01[1,3] B01[1,4] B01[2,0] B01[2,1]
 B01[2,2] B01[2,3] B01[2,4] B01[3,0] B01[3,1] B01[3,2] B01[3,3] B01[3,4]
 B01[4,0] B01[4,1] B01[4,2] B01[4,3] B01[4,4] B10[0,0] B10[0,1] B10[0,2]
 B10[0,3] B10[0,4] B10[1,0] B10[1,1] B10[1,2] B10[1,3] B10[1,4] B10[2,0]
 B10[2,1] B10[2,2] B10[2,3] B10[2,4] B10[3,0] B10[3,1] B10[3,2] B10[3,3]
 B10[3,4] B10[4,0] B10[4,1] B10[4,2] B10[4,3] B10[4,4] B11[0,0] B11[0,1]
 B11[0,2] B11[0,3] B11[0,4] B11[1,0] B11[1,1] B11[1,2] B11[1,3] B11[1,4]
 B11[2,0] B11[2,1] B11[2,2] B11[2,3] B11[2,4] B11[3,0] B11[3,1] B11[3,2]
 B11[3,3] B11[3,4] B11[4,0] B11[4,1] B11[4,2] B11[4,3] B11[4,4] z[0,0]
 z[0,1] z[1,0] z[1,1] z[2,0] z[2,1] z[3,0] z[3,1] z[4,0] z[4,1]
End
